************************************************************************
file with basedata            : md331_.bas
initial value random generator: 1672855587
************************************************************************
projects                      :  1
jobs (incl. supersource/sink ):  22
horizon                       :  168
RESOURCES
  - renewable                 :  2   R
  - nonrenewable              :  2   N
  - doubly constrained        :  0   D
************************************************************************
PROJECT INFORMATION:
pronr.  #jobs rel.date duedate tardcost  MPM-Time
    1     20      0       26       16       26
************************************************************************
PRECEDENCE RELATIONS:
jobnr.    #modes  #successors   successors
   1        1          3           2   3   4
   2        3          3           6  10  11
   3        3          2           7  14
   4        3          3           5   7  18
   5        3          3           8  10  12
   6        3          3           7  13  14
   7        3          2           9  19
   8        3          3           9  11  13
   9        3          3          15  16  17
  10        3          1          16
  11        3          3          14  16  21
  12        3          1          19
  13        3          2          17  19
  14        3          1          15
  15        3          1          20
  16        3          1          20
  17        3          1          21
  18        3          1          21
  19        3          1          22
  20        3          1          22
  21        3          1          22
  22        1          0        
************************************************************************
REQUESTS/DURATIONS:
jobnr. mode duration  R 1  R 2  N 1  N 2
------------------------------------------------------------------------
  1      1     0       0    0    0    0
  2      1     2       0    9    8    0
         2     5       4    0    6    0
         3     8       0    7    6    0
  3      1     3       0    6    8    0
         2     9       5    0    8    0
         3    10       0    5    8    0
  4      1     9       7    0    8    0
         2     9       8    0    6    0
         3     9       0    7    0    6
  5      1     5       0    5    7    0
         2     9       0    5    6    0
         3     9       0    3    0    4
  6      1     4       0    8    0    8
         2     6       0    8    0    5
         3     6       1    0    0    4
  7      1     3       9    0    0    9
         2     5       9    0   10    0
         3     6       0   10    0    3
  8      1     1       0    6    9    0
         2     8       0    3    8    0
         3    10       0    1    8    0
  9      1     1       0   10    5    0
         2     5       0   10    4    0
         3     9       0    9    4    0
 10      1     5       0    9    0    4
         2     9      10    0    4    0
         3    10       0    6    0    3
 11      1     4       0    5    5    0
         2     6       4    0    0   10
         3     9       3    0    0    6
 12      1     2       3    0    8    0
         2     6       2    0    8    0
         3     9       0    5    0    6
 13      1     2       9    0    2    0
         2     8       6    0    1    0
         3     9       0    2    0    9
 14      1     2       0    7    0    8
         2     4       0    4    3    0
         3     5       5    0    0    5
 15      1     3       6    0    0    8
         2     8       0    5    0    8
         3     9       0    5    0    5
 16      1     1       7    0    3    0
         2     4       0    7    3    0
         3     5       4    0    1    0
 17      1     2       0    5    3    0
         2     6       6    0    0    8
         3     8       6    0    2    0
 18      1     4       2    0    0    8
         2     6       0    6    2    0
         3     7       0    2    1    0
 19      1     1       6    0    9    0
         2     2       5    0    9    0
         3    10       0    2    7    0
 20      1     2       0    9    0    7
         2     8       0    7    3    0
         3    10       3    0    3    0
 21      1     3       8    0    0    2
         2     9       6    0    7    0
         3    10       5    0    6    0
 22      1     0       0    0    0    0
************************************************************************
RESOURCEAVAILABILITIES:
  R 1  R 2  N 1  N 2
   21   29   69   53
************************************************************************
MAXIMAL LAGS:
from  to  type  delay
    1   12   ES      0
    1    2   ES      0
    2   12   ES      0
    1    3   ES      0
    3   12   ES      0
    1    4   ES      0
    4   12   ES      0
    1    5   ES      0
    5   12   ES      0
    1    6   ES      0
    6   12   ES      0
    1    7   ES      0
    7   12   ES      0
    1    8   ES      0
    8   12   ES      0
    1    9   ES      0
    9   12   ES      0
    1   10   ES      0
   10   12   ES      0
    1   11   ES      0
   11   12   ES      0
    1   12   ES      0
    2    6   SS     -9
    2    6   SE     -9
    2    6   ES     -5
    2    6   EE      5
    2   10   SS     -8
    2   10   SE      0
    2   10   ES      2
    2   10   EE     -1
    2   11   SS      9
    2   11   SE     11
    2   11   ES     10
    2   11   EE      5
    3    7   SS      1
    3    7   SE      6
    3    7   ES     11
    3    7   EE     11
    3   14   SS     -8
    3   14   SE      1
    3   14   ES      8
    3   14   EE     -9
    4    5   SS      3
    4    5   SE      7
    4    5   ES      1
    4    5   EE     -4
    4    7   SS    -11
    4    7   SE     10
    4    7   ES     -1
    4    7   EE     -6
    4   18   SS      2
    4   18   SE      2
    4   18   ES     -5
    4   18   EE     -1
    5    8   SS     -9
    5    8   SE      9
    5    8   ES     -1
    5    8   EE      5
    5   10   SS      8
    5   10   SE     -1
    5   10   ES    -11
    5   10   EE      0
    6    7   SS     -4
    6    7   SE     -6
    6    7   ES     -9
    6    7   EE      2
    6   13   SS    -10
    6   13   SE      9
    6   13   ES     -6
    6   13   EE      8
    6   14   SS      8
    6   14   SE      7
    6   14   ES    -12
    6   14   EE    -11
    7    9   SS     -2
    7    9   SE     -5
    7    9   ES     -8
    7    9   EE      6
    7   19   SS     -6
    7   19   SE    -10
    7   19   ES     12
    7   19   EE      5
    8    9   SS     -6
    8    9   SE      6
    8    9   ES     -6
    8    9   EE     -5
    8   11   SS     -2
    8   11   SE     12
    8   11   ES     -8
    8   11   EE      7
    8   13   SS    -12
    8   13   SE     -4
    8   13   ES     -8
    8   13   EE     -8
    9   15   SS      5
    9   15   SE     -4
    9   15   ES     -7
    9   15   EE     -9
    9   16   SS      9
    9   16   SE    -12
    9   16   ES     -8
    9   16   EE    -12
    9   17   SS     -1
    9   17   SE     -5
    9   17   ES      6
    9   17   EE     -2
   10   16   SS    -12
   10   16   SE     -7
   10   16   ES     -4
   10   16   EE    -11
   11   14   SS     -8
   11   14   SE     11
   11   14   ES      1
   11   14   EE      4
   11   16   SS     -9
   11   16   SE     11
   11   16   ES    -10
   11   16   EE      3
   11   21   SS      2
   11   21   SE     12
   11   21   ES     -1
   11   21   EE      4
   12   19   SS      6
   12   19   SE     -9
   12   19   ES      2
   12   19   EE      4
   13   17   SS     -5
   13   17   SE      7
   13   17   ES    -11
   13   17   EE     11
   13   19   SS      9
   13   19   SE      4
   13   19   ES     -3
   13   19   EE      2
   14   15   SS      8
   14   15   SE    -12
   14   15   ES    -11
   14   15   EE      3
   15   20   SS      0
   15   20   SE      1
   15   20   ES      9
   15   20   EE     -9
   16   20   SS      3
   16   20   SE     10
   16   20   ES      2
   16   20   EE    -10
   17   21   SS    -10
   17   21   SE     -2
   17   21   ES      7
   17   21   EE     -8
   18   21   SS    -10
   18   21   SE     -8
   18   21   ES     -4
   18   21   EE      7
   19   22   SS      8
   19   22   SE      6
   19   22   ES      5
   19   22   EE     10
   20   22   SS     -2
   20   22   SE      0
   20   22   ES      7
   20   22   EE      4
   21   22   SS     -3
   21   22   SE      2
   21   22   ES      4
   21   22   EE      7
************************************************************************
